NAME 
ROWS
 N  OBJ
 L  R0      
 L  R1      
 E  R2      
 E  R3      
 E  R4      
 E  R5      
 E  R6      
 E  R7      
 E  R8      
 E  R9      
 E  R10     
 E  R11     
 E  R12     
 E  R13     
 E  R14     
 E  R15     
 E  R16     
 E  R17     
 E  R18     
 E  R19     
 E  R20     
 E  R21     
 E  R22     
 E  R23     
 E  R24     
 E  R25     
 E  R26     
COLUMNS
    MARKER    'MARKER'                 'INTORG'
    I0(8)     OBJ       75
    I0(8)     R0        -8
    I0(8)     R1        -85
    I0(8)     R3        11
    I0(8)     R4        6
    I0(8)     R7        19
    I0(8)     R9        12
    I0(8)     R10       5
    I0(8)     R26       1
    I1(10)    OBJ       131
    I1(10)    R0        -56
    I1(10)    R1        -38
    I1(10)    R2        4
    I1(10)    R3        10
    I1(10)    R6        15
    I1(10)    R7        8
    I1(10)    R8        17
    I1(10)    R9        4
    I1(10)    R10       18
    I1(10)    R26       1
    I2(10)    OBJ       -7
    I2(10)    R0        -70
    I2(10)    R1        -16
    I2(10)    R3        17
    I2(10)    R4        4
    I2(10)    R5        -1
    I2(10)    R6        3
    I2(10)    R7        14
    I2(10)    R9        1
    I2(10)    R10       5
    I2(10)    R26       1
    I3(11)    OBJ       181
    I3(11)    R0        140
    I3(11)    R1        -114
    I3(11)    R2        7
    I3(11)    R3        5
    I3(11)    R5        18
    I3(11)    R6        14
    I3(11)    R7        19
    I3(11)    R9        19
    I3(11)    R10       19
    I3(11)    R11       17
    I3(11)    R26       1
    I4(9)     OBJ       166
    I4(9)     R0        65
    I4(9)     R1        -85
    I4(9)     R3        11
    I4(9)     R6        16
    I4(9)     R7        9
    I4(9)     R8        12
    I4(9)     R10       18
    I4(9)     R11       7
    I4(9)     R26       1
    I5(10)    OBJ       -31
    I5(10)    R0        100
    I5(10)    R1        67
    I5(10)    R2        3
    I5(10)    R3        12
    I5(10)    R5        15
    I5(10)    R6        15
    I5(10)    R7        -1
    I5(10)    R8        13
    I5(10)    R9        4
    I5(10)    R26       1
    I6(9)     OBJ       199
    I6(9)     R0        -65
    I6(9)     R1        134
    I6(9)     R2        14
    I6(9)     R3        14
    I6(9)     R6        9
    I6(9)     R7        19
    I6(9)     R8        12
    I6(9)     R10       12
    I6(9)     R26       1
    I7(13)    OBJ       -53
    I7(13)    R0        -9
    I7(13)    R1        131
    I7(13)    R2        13
    I7(13)    R3        -1
    I7(13)    R4        18
    I7(13)    R5        14
    I7(13)    R6        7
    I7(13)    R7        6
    I7(13)    R8        15
    I7(13)    R9        17
    I7(13)    R10       -1
    I7(13)    R11       10
    I7(13)    R26       1
    I8(9)     OBJ       -48
    I8(9)     R0        164
    I8(9)     R1        -5
    I8(9)     R2        13
    I8(9)     R5        -1
    I8(9)     R7        18
    I8(9)     R8        11
    I8(9)     R9        13
    I8(9)     R10       3
    I8(9)     R26       1
    I9(10)    OBJ       137
    I9(10)    R0        -194
    I9(10)    R1        56
    I9(10)    R4        1
    I9(10)    R5        18
    I9(10)    R6        9
    I9(10)    R7        2
    I9(10)    R9        3
    I9(10)    R10       15
    I9(10)    R11       9
    I9(10)    R26       1
    MARKER    'MARKER'                 'INTEND'
    C10(16)   OBJ       -3
    C10(16)   R0        -3
    C10(16)   R1        -9
    C10(16)   R2        16
    C10(16)   R3        15
    C10(16)   R5        15
    C10(16)   R7        2
    C10(16)   R9        15
    C10(16)   R11       13
    C10(16)   R13       15
    C10(16)   R16       12
    C10(16)   R17       11
    C10(16)   R18       19
    C10(16)   R19       -1
    C10(16)   R20       7
    C10(16)   R22       18
    C10(16)   R24       16
    C11(19)   OBJ       7
    C11(19)   R0        7
    C11(19)   R1        9
    C11(19)   R4        6
    C11(19)   R5        1
    C11(19)   R7        18
    C11(19)   R8        13
    C11(19)   R9        1
    C11(19)   R12       10
    C11(19)   R13       17
    C11(19)   R14       18
    C11(19)   R15       14
    C11(19)   R16       15
    C11(19)   R17       18
    C11(19)   R19       3
    C11(19)   R20       6
    C11(19)   R22       8
    C11(19)   R23       11
    C11(19)   R24       2
    C11(19)   R25       4
    C12(19)   OBJ       -3
    C12(19)   R0        5
    C12(19)   R1        2
    C12(19)   R2        18
    C12(19)   R3        12
    C12(19)   R4        16
    C12(19)   R5        3
    C12(19)   R6        9
    C12(19)   R7        14
    C12(19)   R8        15
    C12(19)   R9        4
    C12(19)   R11       -1
    C12(19)   R12       -1
    C12(19)   R13       -1
    C12(19)   R15       15
    C12(19)   R16       12
    C12(19)   R17       1
    C12(19)   R21       6
    C12(19)   R23       3
    C12(19)   R24       3
    C13(15)   OBJ       4
    C13(15)   R0        -2
    C13(15)   R1        -1
    C13(15)   R2        17
    C13(15)   R5        11
    C13(15)   R6        6
    C13(15)   R8        10
    C13(15)   R11       2
    C13(15)   R12       13
    C13(15)   R14       6
    C13(15)   R15       18
    C13(15)   R16       19
    C13(15)   R17       15
    C13(15)   R21       6
    C13(15)   R22       7
    C13(15)   R25       3
    C14(18)   OBJ       5
    C14(18)   R0        -6
    C14(18)   R1        1
    C14(18)   R2        1
    C14(18)   R3        -1
    C14(18)   R5        13
    C14(18)   R6        2
    C14(18)   R8        11
    C14(18)   R9        16
    C14(18)   R11       18
    C14(18)   R12       14
    C14(18)   R13       8
    C14(18)   R14       14
    C14(18)   R16       3
    C14(18)   R18       2
    C14(18)   R21       8
    C14(18)   R23       -1
    C14(18)   R24       14
    C14(18)   R25       -1
    C15(18)   OBJ       8
    C15(18)   R0        6
    C15(18)   R1        1
    C15(18)   R3        -1
    C15(18)   R4        10
    C15(18)   R6        5
    C15(18)   R7        -1
    C15(18)   R8        15
    C15(18)   R10       15
    C15(18)   R11       5
    C15(18)   R12       18
    C15(18)   R13       17
    C15(18)   R14       6
    C15(18)   R15       12
    C15(18)   R18       8
    C15(18)   R20       -1
    C15(18)   R21       11
    C15(18)   R22       2
    C15(18)   R24       4
    C16(19)   OBJ       8
    C16(19)   R0        6
    C16(19)   R1        3
    C16(19)   R2        19
    C16(19)   R4        16
    C16(19)   R5        2
    C16(19)   R6        7
    C16(19)   R7        15
    C16(19)   R8        -1
    C16(19)   R9        15
    C16(19)   R11       16
    C16(19)   R14       17
    C16(19)   R15       17
    C16(19)   R16       9
    C16(19)   R17       17
    C16(19)   R18       17
    C16(19)   R19       14
    C16(19)   R20       10
    C16(19)   R21       19
    C16(19)   R24       9
    C17(14)   OBJ       -5
    C17(14)   R0        -5
    C17(14)   R1        2
    C17(14)   R3        10
    C17(14)   R6        12
    C17(14)   R8        13
    C17(14)   R9        3
    C17(14)   R10       17
    C17(14)   R11       12
    C17(14)   R13       12
    C17(14)   R16       4
    C17(14)   R20       2
    C17(14)   R23       14
    C17(14)   R24       16
    C17(14)   R25       13
    C18(19)   OBJ       -9
    C18(19)   R0        -1
    C18(19)   R1        -4
    C18(19)   R3        3
    C18(19)   R4        16
    C18(19)   R7        6
    C18(19)   R8        16
    C18(19)   R9        19
    C18(19)   R11       16
    C18(19)   R12       2
    C18(19)   R13       8
    C18(19)   R14       4
    C18(19)   R15       1
    C18(19)   R19       17
    C18(19)   R20       17
    C18(19)   R21       2
    C18(19)   R22       16
    C18(19)   R23       4
    C18(19)   R24       7
    C18(19)   R25       2
    C19(17)   OBJ       6
    C19(17)   R0        -8
    C19(17)   R1        -1
    C19(17)   R2        1
    C19(17)   R3        -1
    C19(17)   R5        -1
    C19(17)   R6        13
    C19(17)   R11       6
    C19(17)   R12       16
    C19(17)   R13       12
    C19(17)   R14       13
    C19(17)   R16       6
    C19(17)   R17       -1
    C19(17)   R19       17
    C19(17)   R20       19
    C19(17)   R22       2
    C19(17)   R24       19
    C19(17)   R25       -1
    C20(22)   OBJ       9
    C20(22)   R0        8
    C20(22)   R1        -3
    C20(22)   R2        1
    C20(22)   R3        -1
    C20(22)   R4        5
    C20(22)   R6        4
    C20(22)   R7        10
    C20(22)   R9        15
    C20(22)   R10       -1
    C20(22)   R11       16
    C20(22)   R12       17
    C20(22)   R14       6
    C20(22)   R15       4
    C20(22)   R16       -1
    C20(22)   R17       10
    C20(22)   R18       8
    C20(22)   R19       5
    C20(22)   R20       13
    C20(22)   R21       6
    C20(22)   R23       4
    C20(22)   R24       14
    C20(22)   R25       -1
    C21(19)   OBJ       9
    C21(19)   R0        3
    C21(19)   R1        -2
    C21(19)   R2        14
    C21(19)   R4        18
    C21(19)   R5        11
    C21(19)   R7        9
    C21(19)   R8        12
    C21(19)   R9        17
    C21(19)   R11       10
    C21(19)   R13       -1
    C21(19)   R14       11
    C21(19)   R17       11
    C21(19)   R18       15
    C21(19)   R19       7
    C21(19)   R20       4
    C21(19)   R22       15
    C21(19)   R23       10
    C21(19)   R24       7
    C21(19)   R25       2
    C22(19)   OBJ       9
    C22(19)   R0        -5
    C22(19)   R1        9
    C22(19)   R2        13
    C22(19)   R3        17
    C22(19)   R4        10
    C22(19)   R5        14
    C22(19)   R6        16
    C22(19)   R8        14
    C22(19)   R11       5
    C22(19)   R12       16
    C22(19)   R13       18
    C22(19)   R14       8
    C22(19)   R15       16
    C22(19)   R16       8
    C22(19)   R17       16
    C22(19)   R18       10
    C22(19)   R19       7
    C22(19)   R21       17
    C22(19)   R24       9
    C23(11)   OBJ       -6
    C23(11)   R0        1
    C23(11)   R3        14
    C23(11)   R5        19
    C23(11)   R6        14
    C23(11)   R12       9
    C23(11)   R14       12
    C23(11)   R16       13
    C23(11)   R17       -1
    C23(11)   R18       14
    C23(11)   R23       12
    C23(11)   R24       3
    C24(17)   R0        2
    C24(17)   R1        -1
    C24(17)   R3        14
    C24(17)   R4        10
    C24(17)   R5        8
    C24(17)   R6        14
    C24(17)   R8        5
    C24(17)   R9        5
    C24(17)   R11       12
    C24(17)   R14       -1
    C24(17)   R16       9
    C24(17)   R18       8
    C24(17)   R19       12
    C24(17)   R20       14
    C24(17)   R21       17
    C24(17)   R22       6
    C24(17)   R24       14
    C25(1)    R2        1
    C26(1)    R3        1
    C27(1)    R4        1
    C28(1)    R5        1
    C29(1)    R6        1
    C30(1)    R7        1
    C31(1)    R8        1
    C32(1)    R9        1
    C33(1)    R10       1
    C34(1)    R11       1
    C35(1)    R12       1
    C36(1)    R13       1
    C37(1)    R14       1
    C38(1)    R15       1
    C39(1)    R16       1
    C40(1)    R17       1
    C41(1)    R18       1
    C42(1)    R19       1
    C43(1)    R20       1
    C44(1)    R21       1
    C45(1)    R22       1
    C46(1)    R23       1
    C47(1)    R24       1
    C48(1)    R25       1
    C49(1)    R26       1
RHS
    RHS1      R0        2.5413804945054946e+02
    RHS1      R1        1.8167307692307691e+02
    RHS1      R2        62
    RHS1      R3        72
    RHS1      R4        67
    RHS1      R5        74
    RHS1      R6        52
    RHS1      R7        93
    RHS1      R8        76
    RHS1      R9        94
    RHS1      R10       61
    RHS1      R11       50
    RHS1      R12       54
    RHS1      R13       50
    RHS1      R14       64
    RHS1      R15       97
    RHS1      R16       65
    RHS1      R17       88
    RHS1      R18       71
    RHS1      R19       86
    RHS1      R20       88
    RHS1      R21       68
    RHS1      R22       64
    RHS1      R23       75
    RHS1      R24       52
    RHS1      R25       94
    RHS1      R26       3
BOUNDS
 UP BND1      I0(8)     1
 UP BND1      I1(10)    1
 UP BND1      I2(10)    1
 UP BND1      I3(11)    1
 UP BND1      I4(9)     1
 UP BND1      I5(10)    1
 UP BND1      I6(9)     1
 UP BND1      I7(13)    1
 UP BND1      I8(9)     1
 UP BND1      I9(10)    1
ENDATA
